\ Model Cl_25_Ins_10.lp
\ LP format - for model browsing. Use MPS format to capture full model detail.
Maximize
 
Subject To
 obj1: y[0] = 0
 obj2: y[1] = 0
 obj1_Exp: - y[0] + 92 x[0] + 91 x[1] + 89 x[2] + 89 x[3] + 83 x[4]
   + 83 x[5] + 83 x[6] + 82 x[7] + 74 x[8] + 69 x[9] + 52 x[10] + 50 x[11]
   + 44 x[12] + 43 x[13] + 37 x[14] + 35 x[15] + 34 x[16] + 34 x[17]
   + 34 x[18] + 33 x[19] + 25 x[20] + 19 x[21] + 15 x[22] + 9 x[23]
   + 7 x[24] = 0
 obj2_Exp: - y[1] + 57 x[0] + 45 x[1] + 89 x[2] + 93 x[3] + 98 x[4]
   + 78 x[5] + 14 x[6] + 90 x[7] + 53 x[8] + 11 x[9] + 46 x[10] + 89 x[11]
   + 78 x[12] + 35 x[13] + 58 x[14] + 15 x[15] + 16 x[16] + 53 x[17]
   + 25 x[18] + 72 x[19] + 15 x[20] + 47 x[21] + 72 x[22] + 53 x[23]
   + 81 x[24] = 0
 Budget: 102 x[0] + 101 x[1] + 99 x[2] + 99 x[3] + 93 x[4] + 93 x[5]
   + 93 x[6] + 92 x[7] + 84 x[8] + 79 x[9] + 62 x[10] + 60 x[11] + 54 x[12]
   + 53 x[13] + 47 x[14] + 45 x[15] + 44 x[16] + 44 x[17] + 44 x[18]
   + 43 x[19] + 35 x[20] + 29 x[21] + 25 x[22] + 19 x[23] + 17 x[24]
   <= 700
Bounds
Binaries
 x[0] x[1] x[2] x[3] x[4] x[5] x[6] x[7] x[8] x[9] x[10] x[11] x[12] x[13]
 x[14] x[15] x[16] x[17] x[18] x[19] x[20] x[21] x[22] x[23] x[24]
Generals
 y[0] y[1]
End
